p cnf 28 40
-25 4 0 
-6 28 0 
-26 3 0 
-7 27 0 
-10 23 0 
-9 22 0 
-18 7 0 
-16 5 0 
-2 28 0 
-9 28 0 
-7 12 0 
-13 1 0 
-7 18 0 
-1 15 0 
-11 15 0 
-28 2 5 6 9 0 
-21 3 0 
-27 7 0 
-8 14 0 
-11 20 0 
-22 9 0 
-4 25 0 
-12 3 7 0 
-3 12 0 
-24 4 0 
-5 16 0 
-15 1 11 0 
-6 17 0 
-5 28 0 
-3 26 0 
-17 6 0 
-1 13 0 
-9 14 0 
-4 24 0 
-14 8 9 0 
-2 19 0 
-20 11 0 
-23 10 0 
-3 21 0 
-19 2 0 
